benchmark/results/graph__10-1000-0.10-02_11/graph__10-1000-0.10-02_11_Quinton_Benders_master.lp
\ This file has been generated by DOcplex
\ ENCODING=ISO-8859-1
\Problem name: Quinton Benders_master

Maximize
 obj: z
Subject To
 c1: m_a0_proc_1 = 1
 c2: m_a1_proc_0 + m_a1_proc_1 = 1
 c3: m_a2_proc_0 = 1
 c4: m_a3_proc_0 + m_a3_proc_1 = 1
 c5: m_a4_proc_0 + m_a4_proc_1 = 1
 c6: m_a5_proc_0 + m_a5_proc_1 = 1
 c7: m_a6_proc_1 = 1
 c8: m_a7_proc_0 + m_a7_proc_1 = 1
 c9: m_a8_proc_1 = 1
 c10: m_a9_proc_0 + m_a9_proc_1 = 1
 c11: K_a0_a1 + K_a1_a0 = 1
 c12: K_a0_a1 + K_a1_a0 = 1
 c13: K_a0_a3 + K_a3_a0 = 1
 c14: K_a0_a3 + K_a3_a0 = 1
 c15: K_a0_a4 + K_a4_a0 = 1
 c16: K_a0_a4 + K_a4_a0 = 1
 c17: K_a0_a5 + K_a5_a0 = 1
 c18: K_a0_a5 + K_a5_a0 = 1
 c19: K_a0_a6 + K_a6_a0 = 1
 c20: K_a0_a6 + K_a6_a0 = 1
 c21: K_a0_a7 + K_a7_a0 = 1
 c22: K_a0_a7 + K_a7_a0 = 1
 c23: K_a0_a8 + K_a8_a0 = 1
 c24: K_a0_a8 + K_a8_a0 = 1
 c25: K_a0_a9 + K_a9_a0 = 1
 c26: K_a0_a9 + K_a9_a0 = 1
 c27: K_a1_a2 + K_a2_a1 = 1
 c28: K_a1_a2 + K_a2_a1 = 1
 c29: K_a1_a3 + K_a3_a1 = 1
 c30: K_a1_a3 + K_a3_a1 = 1
 c31: K_a1_a4 + K_a4_a1 = 1
 c32: K_a1_a4 + K_a4_a1 = 1
 c33: K_a1_a5 + K_a5_a1 = 1
 c34: K_a1_a5 + K_a5_a1 = 1
 c35: K_a1_a6 + K_a6_a1 = 1
 c36: K_a1_a6 + K_a6_a1 = 1
 c37: K_a1_a7 + K_a7_a1 = 1
 c38: K_a1_a7 + K_a7_a1 = 1
 c39: K_a1_a8 + K_a8_a1 = 1
 c40: K_a1_a8 + K_a8_a1 = 1
 c41: K_a1_a9 + K_a9_a1 = 1
 c42: K_a1_a9 + K_a9_a1 = 1
 c43: K_a2_a3 + K_a3_a2 = 1
 c44: K_a2_a3 + K_a3_a2 = 1
 c45: K_a2_a4 + K_a4_a2 = 1
 c46: K_a2_a4 + K_a4_a2 = 1
 c47: K_a2_a5 + K_a5_a2 = 1
 c48: K_a2_a5 + K_a5_a2 = 1
 c49: K_a2_a7 + K_a7_a2 = 1
 c50: K_a2_a7 + K_a7_a2 = 1
 c51: K_a2_a9 + K_a9_a2 = 1
 c52: K_a2_a9 + K_a9_a2 = 1
 c53: K_a3_a4 + K_a4_a3 = 1
 c54: K_a3_a4 + K_a4_a3 = 1
 c55: K_a3_a5 + K_a5_a3 = 1
 c56: K_a3_a5 + K_a5_a3 = 1
 c57: K_a3_a6 + K_a6_a3 = 1
 c58: K_a3_a6 + K_a6_a3 = 1
 c59: K_a3_a7 + K_a7_a3 = 1
 c60: K_a3_a7 + K_a7_a3 = 1
 c61: K_a3_a8 + K_a8_a3 = 1
 c62: K_a3_a8 + K_a8_a3 = 1
 c63: K_a3_a9 + K_a9_a3 = 1
 c64: K_a3_a9 + K_a9_a3 = 1
 c65: K_a4_a5 + K_a5_a4 = 1
 c66: K_a4_a5 + K_a5_a4 = 1
 c67: K_a4_a6 + K_a6_a4 = 1
 c68: K_a4_a6 + K_a6_a4 = 1
 c69: K_a4_a7 + K_a7_a4 = 1
 c70: K_a4_a7 + K_a7_a4 = 1
 c71: K_a4_a8 + K_a8_a4 = 1
 c72: K_a4_a8 + K_a8_a4 = 1
 c73: K_a4_a9 + K_a9_a4 = 1
 c74: K_a4_a9 + K_a9_a4 = 1
 c75: K_a5_a6 + K_a6_a5 = 1
 c76: K_a5_a6 + K_a6_a5 = 1
 c77: K_a5_a7 + K_a7_a5 = 1
 c78: K_a5_a7 + K_a7_a5 = 1
 c79: K_a5_a8 + K_a8_a5 = 1
 c80: K_a5_a8 + K_a8_a5 = 1
 c81: K_a5_a9 + K_a9_a5 = 1
 c82: K_a5_a9 + K_a9_a5 = 1
 c83: K_a6_a7 + K_a7_a6 = 1
 c84: K_a6_a7 + K_a7_a6 = 1
 c85: K_a6_a8 + K_a8_a6 = 1
 c86: K_a6_a8 + K_a8_a6 = 1
 c87: K_a6_a9 + K_a9_a6 = 1
 c88: K_a6_a9 + K_a9_a6 = 1
 c89: K_a7_a8 + K_a8_a7 = 1
 c90: K_a7_a8 + K_a8_a7 = 1
 c91: K_a7_a9 + K_a9_a7 = 1
 c92: K_a7_a9 + K_a9_a7 = 1
 c93: K_a8_a9 + K_a9_a8 = 1
 c94: K_a8_a9 + K_a9_a8 = 1
 c95: z <= 99999999989999992832
 c96: - 1269 m_a0_proc_1 + w_a2 - w_a0 >= -1268.886012941762
 c97: K_a0_a1 - 1269 m_a0_proc_1 - 1269 m_a1_proc_1 + w_a1 - w_a0 >= 
      -2537.886012941762
 c98: K_a0_a3 - 1269 m_a0_proc_1 - 1269 m_a3_proc_1 + w_a3 - w_a0 >= 
      -2537.886012941762
 c99: K_a0_a4 - 1269 m_a0_proc_1 - 1269 m_a4_proc_1 + w_a4 - w_a0 >= 
      -2537.886012941762
 c100: K_a0_a5 - 1269 m_a0_proc_1 - 1269 m_a5_proc_1 + w_a5 - w_a0 >= 
       -2537.886012941762
 c101: K_a0_a6 - 1269 m_a0_proc_1 - 1269 m_a6_proc_1 + w_a6 - w_a0 >= 
       -2537.886012941762
 c102: K_a0_a7 - 1269 m_a0_proc_1 - 1269 m_a7_proc_1 + w_a7 - w_a0 >= 
       -2537.886012941762
 c103: K_a0_a8 - 1269 m_a0_proc_1 - 1269 m_a8_proc_1 + w_a8 - w_a0 >= 
       -2537.886012941762
 c104: K_a0_a9 - 1269 m_a0_proc_1 - 1269 m_a9_proc_1 + w_a9 - w_a0 >= 
       -2537.886012941762
 c105: - 1269 m_a1_proc_0 + w_a0 - w_a1 >= -1268.896864111498
 c106: - 1269 m_a1_proc_0 + w_a8 - w_a1 >= -1268.896864111498
 c107: K_a1_a2 - 1269 m_a1_proc_0 - 1269 m_a2_proc_0 + w_a2 - w_a1 >= 
       -2537.896864111498
 c108: K_a1_a3 - 1269 m_a1_proc_0 - 1269 m_a3_proc_0 + w_a3 - w_a1 >= 
       -2537.896864111498
 c109: K_a1_a4 - 1269 m_a1_proc_0 - 1269 m_a4_proc_0 + w_a4 - w_a1 >= 
       -2537.896864111498
 c110: K_a1_a5 - 1269 m_a1_proc_0 - 1269 m_a5_proc_0 + w_a5 - w_a1 >= 
       -2537.896864111498
 c111: K_a1_a7 - 1269 m_a1_proc_0 - 1269 m_a7_proc_0 + w_a7 - w_a1 >= 
       -2537.896864111498
 c112: K_a1_a9 - 1269 m_a1_proc_0 - 1269 m_a9_proc_0 + w_a9 - w_a1 >= 
       -2537.896864111498
 c113: - 1269 m_a1_proc_1 + w_a0 - w_a1 >= -1268.887108013937
 c114: - 1269 m_a1_proc_1 + w_a8 - w_a1 >= -1268.887108013937
 c115: K_a1_a0 - 1269 m_a0_proc_1 - 1269 m_a1_proc_1 + w_a0 - w_a1 >= 
       -2537.887108013937
 c116: K_a1_a3 - 1269 m_a1_proc_1 - 1269 m_a3_proc_1 + w_a3 - w_a1 >= 
       -2537.887108013937
 c117: K_a1_a4 - 1269 m_a1_proc_1 - 1269 m_a4_proc_1 + w_a4 - w_a1 >= 
       -2537.887108013937
 c118: K_a1_a5 - 1269 m_a1_proc_1 - 1269 m_a5_proc_1 + w_a5 - w_a1 >= 
       -2537.887108013937
 c119: K_a1_a6 - 1269 m_a1_proc_1 - 1269 m_a6_proc_1 + w_a6 - w_a1 >= 
       -2537.887108013937
 c120: K_a1_a7 - 1269 m_a1_proc_1 - 1269 m_a7_proc_1 + w_a7 - w_a1 >= 
       -2537.887108013937
 c121: K_a1_a8 - 1269 m_a1_proc_1 - 1269 m_a8_proc_1 + w_a8 - w_a1 >= 
       -2537.887108013937
 c122: K_a1_a9 - 1269 m_a1_proc_1 - 1269 m_a9_proc_1 + w_a9 - w_a1 >= 
       -2537.887108013937
 c123: - 1269 m_a2_proc_0 + w_a4 - w_a2 >= -1268.900846192135
 c124: - 1269 m_a2_proc_0 + w_a6 - w_a2 >= -1268.900846192135
 c125: - 1269 m_a2_proc_0 + w_a5 - w_a2 >= -1269.900846192135
 c126: K_a2_a1 - 1269 m_a1_proc_0 - 1269 m_a2_proc_0 + w_a1 - w_a2 >= 
       -2537.900846192135
 c127: K_a2_a3 - 1269 m_a2_proc_0 - 1269 m_a3_proc_0 + w_a3 - w_a2 >= 
       -2537.900846192135
 c128: K_a2_a4 - 1269 m_a2_proc_0 - 1269 m_a4_proc_0 + w_a4 - w_a2 >= 
       -2537.900846192135
 c129: K_a2_a5 - 1269 m_a2_proc_0 - 1269 m_a5_proc_0 + w_a5 - w_a2 >= 
       -2537.900846192135
 c130: K_a2_a7 - 1269 m_a2_proc_0 - 1269 m_a7_proc_0 + w_a7 - w_a2 >= 
       -2537.900846192135
 c131: K_a2_a9 - 1269 m_a2_proc_0 - 1269 m_a9_proc_0 + w_a9 - w_a2 >= 
       -2537.900846192135
 c132: - 1269 m_a3_proc_0 + w_a1 - w_a3 >= -1268.941463414634
 c133: K_a3_a1 - 1269 m_a1_proc_0 - 1269 m_a3_proc_0 + w_a1 - w_a3 >= 
       -2537.941463414634
 c134: K_a3_a2 - 1269 m_a2_proc_0 - 1269 m_a3_proc_0 + w_a2 - w_a3 >= 
       -2537.941463414634
 c135: K_a3_a4 - 1269 m_a3_proc_0 - 1269 m_a4_proc_0 + w_a4 - w_a3 >= 
       -2537.941463414634
 c136: K_a3_a5 - 1269 m_a3_proc_0 - 1269 m_a5_proc_0 + w_a5 - w_a3 >= 
       -2537.941463414634
 c137: K_a3_a7 - 1269 m_a3_proc_0 - 1269 m_a7_proc_0 + w_a7 - w_a3 >= 
       -2537.941463414634
 c138: K_a3_a9 - 1269 m_a3_proc_0 - 1269 m_a9_proc_0 + w_a9 - w_a3 >= 
       -2537.941463414634
 c139: - 1269 m_a3_proc_1 + w_a1 - w_a3 >= -1268.880438028870
 c140: K_a3_a0 - 1269 m_a0_proc_1 - 1269 m_a3_proc_1 + w_a0 - w_a3 >= 
       -2537.880438028870
 c141: K_a3_a1 - 1269 m_a1_proc_1 - 1269 m_a3_proc_1 + w_a1 - w_a3 >= 
       -2537.880438028870
 c142: K_a3_a4 - 1269 m_a3_proc_1 - 1269 m_a4_proc_1 + w_a4 - w_a3 >= 
       -2537.880438028870
 c143: K_a3_a5 - 1269 m_a3_proc_1 - 1269 m_a5_proc_1 + w_a5 - w_a3 >= 
       -2537.880438028870
 c144: K_a3_a6 - 1269 m_a3_proc_1 - 1269 m_a6_proc_1 + w_a6 - w_a3 >= 
       -2537.880438028870
 c145: K_a3_a7 - 1269 m_a3_proc_1 - 1269 m_a7_proc_1 + w_a7 - w_a3 >= 
       -2537.880438028870
 c146: K_a3_a8 - 1269 m_a3_proc_1 - 1269 m_a8_proc_1 + w_a8 - w_a3 >= 
       -2537.880438028870
 c147: K_a3_a9 - 1269 m_a3_proc_1 - 1269 m_a9_proc_1 + w_a9 - w_a3 >= 
       -2537.880438028870
 c148: - 1269 m_a4_proc_0 + w_a5 - w_a4 >= -1269.891786958686
 c149: - 1269 m_a4_proc_0 + w_a7 - w_a4 >= -1269.891786958686
 c150: K_a4_a1 - 1269 m_a1_proc_0 - 1269 m_a4_proc_0 + w_a1 - w_a4 >= 
       -2537.891786958686
 c151: K_a4_a2 - 1269 m_a2_proc_0 - 1269 m_a4_proc_0 + w_a2 - w_a4 >= 
       -2537.891786958686
 c152: K_a4_a3 - 1269 m_a3_proc_0 - 1269 m_a4_proc_0 + w_a3 - w_a4 >= 
       -2537.891786958686
 c153: K_a4_a5 - 1269 m_a4_proc_0 - 1269 m_a5_proc_0 + w_a5 - w_a4 >= 
       -2537.891786958686
 c154: K_a4_a7 - 1269 m_a4_proc_0 - 1269 m_a7_proc_0 + w_a7 - w_a4 >= 
       -2537.891786958686
 c155: K_a4_a9 - 1269 m_a4_proc_0 - 1269 m_a9_proc_0 + w_a9 - w_a4 >= 
       -2537.891786958686
 c156: - 1269 m_a4_proc_1 + w_a5 - w_a4 >= -1269.914484818318
 c157: - 1269 m_a4_proc_1 + w_a7 - w_a4 >= -1269.914484818318
 c158: K_a4_a0 - 1269 m_a0_proc_1 - 1269 m_a4_proc_1 + w_a0 - w_a4 >= 
       -2537.914484818318
 c159: K_a4_a1 - 1269 m_a1_proc_1 - 1269 m_a4_proc_1 + w_a1 - w_a4 >= 
       -2537.914484818318
 c160: K_a4_a3 - 1269 m_a3_proc_1 - 1269 m_a4_proc_1 + w_a3 - w_a4 >= 
       -2537.914484818318
 c161: K_a4_a5 - 1269 m_a4_proc_1 - 1269 m_a5_proc_1 + w_a5 - w_a4 >= 
       -2537.914484818318
 c162: K_a4_a6 - 1269 m_a4_proc_1 - 1269 m_a6_proc_1 + w_a6 - w_a4 >= 
       -2537.914484818318
 c163: K_a4_a7 - 1269 m_a4_proc_1 - 1269 m_a7_proc_1 + w_a7 - w_a4 >= 
       -2537.914484818318
 c164: K_a4_a8 - 1269 m_a4_proc_1 - 1269 m_a8_proc_1 + w_a8 - w_a4 >= 
       -2537.914484818318
 c165: K_a4_a9 - 1269 m_a4_proc_1 - 1269 m_a9_proc_1 + w_a9 - w_a4 >= 
       -2537.914484818318
 c166: - 1269 m_a5_proc_0 + w_a3 - w_a5 >= -1268.903434544550
 c167: K_a5_a1 - 1269 m_a1_proc_0 - 1269 m_a5_proc_0 + w_a1 - w_a5 >= 
       -2537.903434544549
 c168: K_a5_a2 - 1269 m_a2_proc_0 - 1269 m_a5_proc_0 + w_a2 - w_a5 >= 
       -2537.903434544549
 c169: K_a5_a3 - 1269 m_a3_proc_0 - 1269 m_a5_proc_0 + w_a3 - w_a5 >= 
       -2537.903434544549
 c170: K_a5_a4 - 1269 m_a4_proc_0 - 1269 m_a5_proc_0 + w_a4 - w_a5 >= 
       -2537.903434544549
 c171: K_a5_a7 - 1269 m_a5_proc_0 - 1269 m_a7_proc_0 + w_a7 - w_a5 >= 
       -2537.903434544549
 c172: K_a5_a9 - 1269 m_a5_proc_0 - 1269 m_a9_proc_0 + w_a9 - w_a5 >= 
       -2537.903434544549
 c173: - 1269 m_a5_proc_1 + w_a3 - w_a5 >= -1268.922249875560
 c174: K_a5_a0 - 1269 m_a0_proc_1 - 1269 m_a5_proc_1 + w_a0 - w_a5 >= 
       -2537.922249875560
 c175: K_a5_a1 - 1269 m_a1_proc_1 - 1269 m_a5_proc_1 + w_a1 - w_a5 >= 
       -2537.922249875560
 c176: K_a5_a3 - 1269 m_a3_proc_1 - 1269 m_a5_proc_1 + w_a3 - w_a5 >= 
       -2537.922249875560
 c177: K_a5_a4 - 1269 m_a4_proc_1 - 1269 m_a5_proc_1 + w_a4 - w_a5 >= 
       -2537.922249875560
 c178: K_a5_a6 - 1269 m_a5_proc_1 - 1269 m_a6_proc_1 + w_a6 - w_a5 >= 
       -2537.922249875560
 c179: K_a5_a7 - 1269 m_a5_proc_1 - 1269 m_a7_proc_1 + w_a7 - w_a5 >= 
       -2537.922249875560
 c180: K_a5_a8 - 1269 m_a5_proc_1 - 1269 m_a8_proc_1 + w_a8 - w_a5 >= 
       -2537.922249875560
 c181: K_a5_a9 - 1269 m_a5_proc_1 - 1269 m_a9_proc_1 + w_a9 - w_a5 >= 
       -2537.922249875560
 c182: - 1269 m_a6_proc_1 + w_a9 - w_a6 >= -1268.921851667496
 c183: - 1269 m_a6_proc_1 + w_a7 - w_a6 >= -1269.921851667496
 c184: K_a6_a0 - 1269 m_a0_proc_1 - 1269 m_a6_proc_1 + w_a0 - w_a6 >= 
       -2537.921851667496
 c185: K_a6_a1 - 1269 m_a1_proc_1 - 1269 m_a6_proc_1 + w_a1 - w_a6 >= 
       -2537.921851667496
 c186: K_a6_a3 - 1269 m_a3_proc_1 - 1269 m_a6_proc_1 + w_a3 - w_a6 >= 
       -2537.921851667496
 c187: K_a6_a4 - 1269 m_a4_proc_1 - 1269 m_a6_proc_1 + w_a4 - w_a6 >= 
       -2537.921851667496
 c188: K_a6_a5 - 1269 m_a5_proc_1 - 1269 m_a6_proc_1 + w_a5 - w_a6 >= 
       -2537.921851667496
 c189: K_a6_a7 - 1269 m_a6_proc_1 - 1269 m_a7_proc_1 + w_a7 - w_a6 >= 
       -2537.921851667496
 c190: K_a6_a8 - 1269 m_a6_proc_1 - 1269 m_a8_proc_1 + w_a8 - w_a6 >= 
       -2537.921851667496
 c191: K_a6_a9 - 1269 m_a6_proc_1 - 1269 m_a9_proc_1 + w_a9 - w_a6 >= 
       -2537.921851667496
 c192: - 1269 m_a7_proc_0 + w_a6 - w_a7 >= -1268.940866102539
 c193: - 1269 m_a7_proc_0 + w_a3 - w_a7 >= -1268.940866102539
 c194: K_a7_a1 - 1269 m_a1_proc_0 - 1269 m_a7_proc_0 + w_a1 - w_a7 >= 
       -2537.940866102539
 c195: K_a7_a2 - 1269 m_a2_proc_0 - 1269 m_a7_proc_0 + w_a2 - w_a7 >= 
       -2537.940866102539
 c196: K_a7_a3 - 1269 m_a3_proc_0 - 1269 m_a7_proc_0 + w_a3 - w_a7 >= 
       -2537.940866102539
 c197: K_a7_a4 - 1269 m_a4_proc_0 - 1269 m_a7_proc_0 + w_a4 - w_a7 >= 
       -2537.940866102539
 c198: K_a7_a5 - 1269 m_a5_proc_0 - 1269 m_a7_proc_0 + w_a5 - w_a7 >= 
       -2537.940866102539
 c199: K_a7_a9 - 1269 m_a7_proc_0 - 1269 m_a9_proc_0 + w_a9 - w_a7 >= 
       -2537.940866102539
 c200: - 1269 m_a7_proc_1 + w_a6 - w_a7 >= -1268.881035340966
 c201: - 1269 m_a7_proc_1 + w_a3 - w_a7 >= -1268.881035340966
 c202: K_a7_a0 - 1269 m_a0_proc_1 - 1269 m_a7_proc_1 + w_a0 - w_a7 >= 
       -2537.881035340966
 c203: K_a7_a1 - 1269 m_a1_proc_1 - 1269 m_a7_proc_1 + w_a1 - w_a7 >= 
       -2537.881035340966
 c204: K_a7_a3 - 1269 m_a3_proc_1 - 1269 m_a7_proc_1 + w_a3 - w_a7 >= 
       -2537.881035340966
 c205: K_a7_a4 - 1269 m_a4_proc_1 - 1269 m_a7_proc_1 + w_a4 - w_a7 >= 
       -2537.881035340966
 c206: K_a7_a5 - 1269 m_a5_proc_1 - 1269 m_a7_proc_1 + w_a5 - w_a7 >= 
       -2537.881035340966
 c207: K_a7_a6 - 1269 m_a6_proc_1 - 1269 m_a7_proc_1 + w_a6 - w_a7 >= 
       -2537.881035340966
 c208: K_a7_a8 - 1269 m_a7_proc_1 - 1269 m_a8_proc_1 + w_a8 - w_a7 >= 
       -2537.881035340966
 c209: K_a7_a9 - 1269 m_a7_proc_1 - 1269 m_a9_proc_1 + w_a9 - w_a7 >= 
       -2537.881035340966
 c210: - 1269 m_a8_proc_1 + w_a9 - w_a8 >= -1268.973817819811
 c211: - 1269 m_a8_proc_1 + w_a7 - w_a8 >= -1269.973817819811
 c212: - 1269 m_a8_proc_1 + w_a4 - w_a8 >= -1268.973817819811
 c213: K_a8_a0 - 1269 m_a0_proc_1 - 1269 m_a8_proc_1 + w_a0 - w_a8 >= 
       -2537.973817819811
 c214: K_a8_a1 - 1269 m_a1_proc_1 - 1269 m_a8_proc_1 + w_a1 - w_a8 >= 
       -2537.973817819811
 c215: K_a8_a3 - 1269 m_a3_proc_1 - 1269 m_a8_proc_1 + w_a3 - w_a8 >= 
       -2537.973817819811
 c216: K_a8_a4 - 1269 m_a4_proc_1 - 1269 m_a8_proc_1 + w_a4 - w_a8 >= 
       -2537.973817819811
 c217: K_a8_a5 - 1269 m_a5_proc_1 - 1269 m_a8_proc_1 + w_a5 - w_a8 >= 
       -2537.973817819811
 c218: K_a8_a6 - 1269 m_a6_proc_1 - 1269 m_a8_proc_1 + w_a6 - w_a8 >= 
       -2537.973817819811
 c219: K_a8_a7 - 1269 m_a7_proc_1 - 1269 m_a8_proc_1 + w_a7 - w_a8 >= 
       -2537.973817819811
 c220: K_a8_a9 - 1269 m_a8_proc_1 - 1269 m_a9_proc_1 + w_a9 - w_a8 >= 
       -2537.973817819811
 c221: - 1269 m_a9_proc_0 + w_a5 - w_a9 >= -1269.904131408661
 c222: K_a9_a1 - 1269 m_a1_proc_0 - 1269 m_a9_proc_0 + w_a1 - w_a9 >= 
       -2537.904131408661
 c223: K_a9_a2 - 1269 m_a2_proc_0 - 1269 m_a9_proc_0 + w_a2 - w_a9 >= 
       -2537.904131408661
 c224: K_a9_a3 - 1269 m_a3_proc_0 - 1269 m_a9_proc_0 + w_a3 - w_a9 >= 
       -2537.904131408661
 c225: K_a9_a4 - 1269 m_a4_proc_0 - 1269 m_a9_proc_0 + w_a4 - w_a9 >= 
       -2537.904131408661
 c226: K_a9_a5 - 1269 m_a5_proc_0 - 1269 m_a9_proc_0 + w_a5 - w_a9 >= 
       -2537.904131408661
 c227: K_a9_a7 - 1269 m_a7_proc_0 - 1269 m_a9_proc_0 + w_a7 - w_a9 >= 
       -2537.904131408661
 c228: - 1269 m_a9_proc_1 + w_a5 - w_a9 >= -1269.873668491787
 c229: K_a9_a0 - 1269 m_a0_proc_1 - 1269 m_a9_proc_1 + w_a0 - w_a9 >= 
       -2537.873668491787
 c230: K_a9_a1 - 1269 m_a1_proc_1 - 1269 m_a9_proc_1 + w_a1 - w_a9 >= 
       -2537.873668491787
 c231: K_a9_a3 - 1269 m_a3_proc_1 - 1269 m_a9_proc_1 + w_a3 - w_a9 >= 
       -2537.873668491787
 c232: K_a9_a4 - 1269 m_a4_proc_1 - 1269 m_a9_proc_1 + w_a4 - w_a9 >= 
       -2537.873668491787
 c233: K_a9_a5 - 1269 m_a5_proc_1 - 1269 m_a9_proc_1 + w_a5 - w_a9 >= 
       -2537.873668491787
 c234: K_a9_a6 - 1269 m_a6_proc_1 - 1269 m_a9_proc_1 + w_a6 - w_a9 >= 
       -2537.873668491787
 c235: K_a9_a7 - 1269 m_a7_proc_1 - 1269 m_a9_proc_1 + w_a7 - w_a9 >= 
       -2537.873668491787
 c236: K_a9_a8 - 1269 m_a8_proc_1 - 1269 m_a9_proc_1 + w_a8 - w_a9 >= 
       -2537.873668491787
 c237: z - 0.000125187782 K_a8_a0 - 0.000125187782 K_a9_a7
       + 0.158863294942 m_a0_proc_1 - 0.012268402604 m_a1_proc_0
       - 0.076740110165 m_a3_proc_0 - 0.075237856785 m_a7_proc_0
       + 0.158863294942 m_a7_proc_1 + 0.158863294942 m_a8_proc_1
       - 0.158863294942 m_a9_proc_0 + 0.158863294942 m_a9_proc_1 <= 
       0.635453179770
 c238: z - 0.000125391850 K_a6_a4 - 0.000125391850 K_a7_a9
       + 0.130532915361 m_a4_proc_1 + 0.159122257053 m_a6_proc_1
       + 0.159122257053 m_a7_proc_0 - 0.074482758621 m_a7_proc_1
       + 0.159122257053 m_a9_proc_0 <= 0.636739811912
 c239: z - 0.000146455770 K_a7_a5 - 0.033391915641 m_a4_proc_1
       + 0.185852372583 m_a5_proc_1 - 0.175014645577 m_a7_proc_0
       + 0.185852372583 m_a7_proc_1 <= 0.371851200937
 c240: z - 0.000139004726 K_a5_a7 - 0.108562691131 m_a5_proc_0
       + 0.176396997498 m_a5_proc_1 + 0.176396997498 m_a7_proc_1
       - 0.042535446205 m_a9_proc_0 <= 0.352932999722
 c241: z - 0.000135446296 K_a5_a7 + 0.171881349045 m_a5_proc_0
       - 0.131382906678 m_a5_proc_1 + 0.171881349045 m_a7_proc_0
       - 0.041446566436 m_a9_proc_0 <= 0.343898144386
 c242: z - 0.000125093820 K_a9_a4 - 0.076682511884 m_a3_proc_0
       + 0.158744058044 m_a4_proc_0 - 0.028521391043 m_a4_proc_1
       + 0.158744058044 m_a9_proc_0 - 0.120465349012 m_a9_proc_1 <= 
       0.317613209907
 c243: z - 0.000139567341 K_a4_a9 - 0.000139567341 K_a8_a0
       + 0.177110956036 m_a0_proc_1 + 0.177110956036 m_a4_proc_0
       - 0.151709699930 m_a4_proc_1 + 0.177110956036 m_a8_proc_1
       + 0.134403349616 m_a9_proc_0 <= 0.708583391486
 c244: z - 0.000133404482 K_a7_a9 - 0.030416221985 m_a4_proc_1
       + 0.169290288154 m_a7_proc_0 - 0.079242262540 m_a7_proc_1
       + 0.128468516542 m_a9_proc_0 <= 0.338847385272
 c245: z - 0.000134066229 K_a4_a6 - 0.115162890468 m_a4_proc_0
       + 0.170130044242 m_a4_proc_1 + 0.170130044242 m_a6_proc_1
       - 0.041024265987 m_a9_proc_0 <= 0.340394154712
 c246: z - 0.046363636364 m_a9_proc_0 <= 0.000151515152
 c247: z - 0.000122609122 K_a6_a8 - 0.000122609122 K_a9_a4
       - 0.012015693968 m_a1_proc_0 + 0.155590975969 m_a4_proc_0
       - 0.027954879843 m_a4_proc_1 + 0.155590975969 m_a6_proc_1
       - 0.073688082393 m_a7_proc_0 + 0.155590975969 m_a8_proc_1
       + 0.155590975969 m_a9_proc_0 - 0.118072584600 m_a9_proc_1 <= 
       0.622486512997
 c248: z - 0.000131856540 K_a6_a8 - 0.000131856540 K_a9_a7
       - 0.080828059072 m_a3_proc_0 + 0.167325949367 m_a6_proc_1
       + 0.088080168776 m_a7_proc_0 + 0.167325949367 m_a8_proc_1
       + 0.167325949367 m_a9_proc_0 - 0.126977848101 m_a9_proc_1 <= 
       0.669303797468
 c249: z - 0.000138561729 K_a6_a4 - 0.084938340030 m_a3_proc_0
       + 0.175834834419 m_a4_proc_1 + 0.175834834419 m_a6_proc_1
       - 0.083275599279 m_a7_proc_0 <= 0.351808230567
 c250: z - 0.000146929180 K_a9_a7 - 0.014399059653 m_a1_proc_0
       + 0.098148692330 m_a7_proc_0 + 0.186453129592 m_a9_proc_0
       - 0.141492800470 m_a9_proc_1 <= 0.372906259183
 c251: z - 0.000145623999 K_a6_a4 - 0.000145623999 K_a8_a0
       + 0.184796854522 m_a0_proc_1 + 0.184796854522 m_a4_proc_1
       + 0.184796854522 m_a6_proc_1 - 0.087520023300 m_a7_proc_0
       + 0.184796854522 m_a8_proc_1 <= 0.739333042085
 c252: z - 0.000119961612 K_a4_a9 - 0.000119961612 K_a6_a8
       - 0.000119961612 K_a7_a5 - 0.000119961612 K_a9_a7
       - 0.011756238004 m_a1_proc_0 + 0.152231285988 m_a4_proc_0
       - 0.130398272553 m_a4_proc_1 + 0.152231285988 m_a5_proc_0
       + 0.152231285988 m_a6_proc_1 + 0.304462571977 m_a7_proc_0
       - 0.071257197697 m_a7_proc_1 + 0.152231285988 m_a8_proc_1
       + 0.304462571977 m_a9_proc_0 - 0.115523032630 m_a9_proc_1 <= 
       1.217850287908
 c253: z - 0.000130821559 K_a6_a8 - 0.000130821559 K_a9_a4
       + 0.166012558870 m_a4_proc_0 - 0.029827315542 m_a4_proc_1
       + 0.166012558870 m_a6_proc_1 + 0.166012558870 m_a8_proc_1
       + 0.166012558870 m_a9_proc_0 - 0.125981161695 m_a9_proc_1 <= 
       0.664181057038
 c254: z - 0.000134843581 K_a4_a6 - 0.000134843581 K_a8_a0
       + 0.171116504854 m_a0_proc_1 - 0.115830636462 m_a4_proc_0
       + 0.171116504854 m_a4_proc_1 + 0.171116504854 m_a6_proc_1
       + 0.171116504854 m_a8_proc_1 <= 0.684600862999
 c255: z - 0.000124208173 K_a6_a8 - 0.000124208173 K_a7_a5
       - 0.000124208173 K_a9_a7 - 0.012172400944 m_a1_proc_0
       - 0.076139609986 m_a3_proc_0 + 0.157620171407 m_a5_proc_0
       - 0.023475344678 m_a5_proc_1 + 0.157620171407 m_a6_proc_1
       + 0.315240342815 m_a7_proc_0 - 0.073779654701 m_a7_proc_1
       + 0.157620171407 m_a8_proc_1 + 0.157620171407 m_a9_proc_0
       - 0.119612470501 m_a9_proc_1 <= 0.945721028444
 c256: z - 0.000152508769 K_a6_a8 + 0.193533628184 m_a6_proc_1
       + 0.193533628184 m_a8_proc_1 <= 0.387219765136
 c257: z - 0.000142653352 K_a4_a9 - 0.000142653352 K_a9_a7
       + 0.181027104137 m_a4_proc_0 - 0.155064194009 m_a4_proc_1
       + 0.095292439372 m_a7_proc_0 + 0.362054208274 m_a9_proc_0
       - 0.137375178317 m_a9_proc_1 <= 0.724108416548
 c258: z - 0.000145285486 K_a4_a9 - 0.014237977626 m_a1_proc_0
       + 0.184367281709 m_a4_proc_0 - 0.157925323260 m_a4_proc_1
       - 0.027458956850 m_a5_proc_1 + 0.184367281709 m_a9_proc_0 <= 
       0.368879848903
 c259: z - 0.000130855797 K_a4_a9 - 0.000130855797 K_a7_a5
       - 0.000130855797 K_a8_a0 - 0.000130855797 K_a9_a7
       + 0.166056006281 m_a0_proc_1 + 0.166056006281 m_a4_proc_0
       - 0.142240251243 m_a4_proc_1 + 0.166056006281 m_a5_proc_0
       - 0.024731745616 m_a5_proc_1 + 0.332112012562 m_a7_proc_0
       - 0.077728343366 m_a7_proc_1 + 0.166056006281 m_a8_proc_1
       + 0.332112012562 m_a9_proc_0 - 0.126014132426 m_a9_proc_1 <= 
       1.328448050249
 c260: z - 0.000115647045 K_a6_a4 - 0.000115647045 K_a7_a9
       - 0.011333410431 m_a1_proc_0 - 0.070891638719 m_a3_proc_0
       + 0.146756100382 m_a4_proc_1 - 0.021857291546 m_a5_proc_1
       + 0.146756100382 m_a6_proc_1 + 0.146756100382 m_a7_proc_0
       - 0.068694344859 m_a7_proc_1 + 0.146756100382 m_a9_proc_0 <= 
       0.587255695617
 c261: z - 0.000147383935 K_a4_a9 + 0.187030213707 m_a4_proc_0
       - 0.160206337509 m_a4_proc_1 - 0.027855563744 m_a5_proc_1
       + 0.187030213707 m_a9_proc_0 <= 0.374207811349
 c262: z - 0.000149387511 K_a4_a9 - 0.014639976098 m_a1_proc_0
       + 0.189572751718 m_a4_proc_0 - 0.162384224679 m_a4_proc_1
       + 0.189572751718 m_a9_proc_0 <= 0.379294890947
 c263: z - 0.000139801482 K_a4_a9 - 0.000139801482 K_a6_a4
       - 0.120089472948 m_a4_proc_0 + 0.354816161051 m_a4_proc_1
       + 0.177408080526 m_a6_proc_1 + 0.177408080526 m_a9_proc_1 <= 
       0.709772123585
 c264: z - 0.013990007138 m_a1_proc_0 - 0.087508922198 m_a3_proc_0 <= 
       0.000142755175
 c265: z - 0.000137912012 K_a9_a4 - 0.013515377189 m_a1_proc_0
       + 0.175010343401 m_a4_proc_0 + 0.175010343401 m_a9_proc_0
       - 0.132809267687 m_a9_proc_1 <= 0.350158598814
 c266: z <= 0.000158881474

Bounds
 -inf <= K_a0_a1 <= 1000000000
 -inf <= K_a0_a2 <= 1000000000
 -inf <= K_a0_a3 <= 1000000000
 -inf <= K_a0_a4 <= 1000000000
 -inf <= K_a0_a5 <= 1000000000
 -inf <= K_a0_a6 <= 1000000000
 -inf <= K_a0_a7 <= 1000000000
 -inf <= K_a0_a8 <= 1000000000
 -inf <= K_a0_a9 <= 1000000000
 -inf <= K_a1_a0 <= 1000000000
 -inf <= K_a1_a2 <= 1000000000
 -inf <= K_a1_a3 <= 1000000000
 -inf <= K_a1_a4 <= 1000000000
 -inf <= K_a1_a5 <= 1000000000
 -inf <= K_a1_a6 <= 1000000000
 -inf <= K_a1_a7 <= 1000000000
 -inf <= K_a1_a8 <= 1000000000
 -inf <= K_a1_a9 <= 1000000000
 -inf <= K_a2_a0 <= 1000000000
 -inf <= K_a2_a1 <= 1000000000
 -inf <= K_a2_a3 <= 1000000000
 -inf <= K_a2_a4 <= 1000000000
 -inf <= K_a2_a5 <= 1000000000
 -inf <= K_a2_a6 <= 1000000000
 -inf <= K_a2_a7 <= 1000000000
 -inf <= K_a2_a8 <= 1000000000
 -inf <= K_a2_a9 <= 1000000000
 -inf <= K_a3_a0 <= 1000000000
 -inf <= K_a3_a1 <= 1000000000
 -inf <= K_a3_a2 <= 1000000000
 -inf <= K_a3_a4 <= 1000000000
 -inf <= K_a3_a5 <= 1000000000
 -inf <= K_a3_a6 <= 1000000000
 -inf <= K_a3_a7 <= 1000000000
 -inf <= K_a3_a8 <= 1000000000
 -inf <= K_a3_a9 <= 1000000000
 -inf <= K_a4_a0 <= 1000000000
 -inf <= K_a4_a1 <= 1000000000
 -inf <= K_a4_a2 <= 1000000000
 -inf <= K_a4_a3 <= 1000000000
 -inf <= K_a4_a5 <= 1000000000
 -inf <= K_a4_a6 <= 1000000000
 -inf <= K_a4_a7 <= 1000000000
 -inf <= K_a4_a8 <= 1000000000
 -inf <= K_a4_a9 <= 1000000000
 -inf <= K_a5_a0 <= 1000000000
 -inf <= K_a5_a1 <= 1000000000
 -inf <= K_a5_a2 <= 1000000000
 -inf <= K_a5_a3 <= 1000000000
 -inf <= K_a5_a4 <= 1000000000
 -inf <= K_a5_a6 <= 1000000000
 -inf <= K_a5_a7 <= 1000000000
 -inf <= K_a5_a8 <= 1000000000
 -inf <= K_a5_a9 <= 1000000000
 -inf <= K_a6_a0 <= 1000000000
 -inf <= K_a6_a1 <= 1000000000
 -inf <= K_a6_a2 <= 1000000000
 -inf <= K_a6_a3 <= 1000000000
 -inf <= K_a6_a4 <= 1000000000
 -inf <= K_a6_a5 <= 1000000000
 -inf <= K_a6_a7 <= 1000000000
 -inf <= K_a6_a8 <= 1000000000
 -inf <= K_a6_a9 <= 1000000000
 -inf <= K_a7_a0 <= 1000000000
 -inf <= K_a7_a1 <= 1000000000
 -inf <= K_a7_a2 <= 1000000000
 -inf <= K_a7_a3 <= 1000000000
 -inf <= K_a7_a4 <= 1000000000
 -inf <= K_a7_a5 <= 1000000000
 -inf <= K_a7_a6 <= 1000000000
 -inf <= K_a7_a8 <= 1000000000
 -inf <= K_a7_a9 <= 1000000000
 -inf <= K_a8_a0 <= 1000000000
 -inf <= K_a8_a1 <= 1000000000
 -inf <= K_a8_a2 <= 1000000000
 -inf <= K_a8_a3 <= 1000000000
 -inf <= K_a8_a4 <= 1000000000
 -inf <= K_a8_a5 <= 1000000000
 -inf <= K_a8_a6 <= 1000000000
 -inf <= K_a8_a7 <= 1000000000
 -inf <= K_a8_a9 <= 1000000000
 -inf <= K_a9_a0 <= 1000000000
 -inf <= K_a9_a1 <= 1000000000
 -inf <= K_a9_a2 <= 1000000000
 -inf <= K_a9_a3 <= 1000000000
 -inf <= K_a9_a4 <= 1000000000
 -inf <= K_a9_a5 <= 1000000000
 -inf <= K_a9_a6 <= 1000000000
 -inf <= K_a9_a7 <= 1000000000
 -inf <= K_a9_a8 <= 1000000000
 0 <= m_a0_proc_1 <= 1
 0 <= m_a1_proc_0 <= 1
 0 <= m_a1_proc_1 <= 1
 0 <= m_a2_proc_0 <= 1
 0 <= m_a3_proc_0 <= 1
 0 <= m_a3_proc_1 <= 1
 0 <= m_a4_proc_0 <= 1
 0 <= m_a4_proc_1 <= 1
 0 <= m_a5_proc_0 <= 1
 0 <= m_a5_proc_1 <= 1
 0 <= m_a6_proc_1 <= 1
 0 <= m_a7_proc_0 <= 1
 0 <= m_a7_proc_1 <= 1
 0 <= m_a8_proc_1 <= 1
 0 <= m_a9_proc_0 <= 1
 0 <= m_a9_proc_1 <= 1

Binaries
 m_a0_proc_1 m_a1_proc_0 m_a1_proc_1 m_a2_proc_0 m_a3_proc_0 m_a3_proc_1
 m_a4_proc_0 m_a4_proc_1 m_a5_proc_0 m_a5_proc_1 m_a6_proc_1 m_a7_proc_0
 m_a7_proc_1 m_a8_proc_1 m_a9_proc_0 m_a9_proc_1

Generals
 K_a0_a1 K_a0_a2 K_a0_a3 K_a0_a4 K_a0_a5 K_a0_a6 K_a0_a7 K_a0_a8 K_a0_a9 K_a1_a0
 K_a1_a2 K_a1_a3 K_a1_a4 K_a1_a5 K_a1_a6 K_a1_a7 K_a1_a8 K_a1_a9 K_a2_a0 K_a2_a1
 K_a2_a3 K_a2_a4 K_a2_a5 K_a2_a6 K_a2_a7 K_a2_a8 K_a2_a9 K_a3_a0 K_a3_a1 K_a3_a2
 K_a3_a4 K_a3_a5 K_a3_a6 K_a3_a7 K_a3_a8 K_a3_a9 K_a4_a0 K_a4_a1 K_a4_a2 K_a4_a3
 K_a4_a5 K_a4_a6 K_a4_a7 K_a4_a8 K_a4_a9 K_a5_a0 K_a5_a1 K_a5_a2 K_a5_a3 K_a5_a4
 K_a5_a6 K_a5_a7 K_a5_a8 K_a5_a9 K_a6_a0 K_a6_a1 K_a6_a2 K_a6_a3 K_a6_a4 K_a6_a5
 K_a6_a7 K_a6_a8 K_a6_a9 K_a7_a0 K_a7_a1 K_a7_a2 K_a7_a3 K_a7_a4 K_a7_a5 K_a7_a6
 K_a7_a8 K_a7_a9 K_a8_a0 K_a8_a1 K_a8_a2 K_a8_a3 K_a8_a4 K_a8_a5 K_a8_a6 K_a8_a7
 K_a8_a9 K_a9_a0 K_a9_a1 K_a9_a2 K_a9_a3 K_a9_a4 K_a9_a5 K_a9_a6 K_a9_a7 K_a9_a8
End
