benchmark/results/graph__10-1000-0.10-02_11/graph__10-1000-0.10-02_11_Quinton_Benders_master.txt
solution for: Quinton Benders_master
objective: 0.000158881
status: OPTIMAL_SOLUTION(2)
K_a0_a1=1270
K_a0_a2=1000000000
K_a0_a3=1270
K_a0_a5=1
K_a0_a7=1270
K_a0_a9=1269
K_a1_a0=-1269
K_a1_a3=1
K_a1_a4=1269
K_a1_a5=1270
K_a1_a6=1269
K_a1_a7=1
K_a1_a8=1269
K_a2_a0=1000000000
K_a2_a1=1
K_a2_a3=1
K_a2_a4=1269
K_a2_a5=1270
K_a2_a6=1000000000
K_a2_a7=1
K_a2_a8=1000000000
K_a3_a0=-1269
K_a3_a4=1269
K_a3_a5=1269
K_a3_a6=1269
K_a3_a7=1
K_a3_a8=1269
K_a4_a0=1
K_a4_a1=-1268
K_a4_a2=-1268
K_a4_a3=-1268
K_a4_a5=1
K_a4_a6=1
K_a4_a7=1270
K_a4_a8=1
K_a4_a9=1269
K_a5_a1=-1269
K_a5_a2=-1269
K_a5_a3=-1268
K_a5_a7=-1268
K_a5_a9=1268
K_a6_a0=1
K_a6_a1=-1268
K_a6_a2=1000000000
K_a6_a3=-1268
K_a6_a5=1
K_a6_a7=2
K_a6_a8=1
K_a6_a9=1269
K_a7_a0=-1269
K_a7_a4=-1269
K_a7_a5=1269
K_a7_a6=-1
K_a7_a8=1269
K_a8_a0=1
K_a8_a1=-1268
K_a8_a2=1000000000
K_a8_a3=-1268
K_a8_a5=1
K_a8_a7=-1268
K_a8_a9=1269
K_a9_a0=-1268
K_a9_a1=1
K_a9_a2=1
K_a9_a3=1
K_a9_a4=-1268
K_a9_a5=-1267
K_a9_a6=-1268
K_a9_a7=1
K_a9_a8=-1268
m_a0_proc_1=1
m_a1_proc_0=1
m_a2_proc_0=1
m_a3_proc_0=1
m_a4_proc_1=1
m_a5_proc_1=1
m_a6_proc_1=1
m_a7_proc_0=1
m_a8_proc_1=1
m_a9_proc_0=1
z=0.000
w_a0=0.249
w_a1=0.136
w_a2=0.727
w_a3=0.078
w_a4=0.914
w_a6=0.826
w_a8=0.800
w_a9=0.904
